p cnf 963 2472
51 -2 -1 0
-51 2 0
-51 1 0
52 -51 -3 0
-52 51 0
-52 3 0
53 -696 -697 0
-53 696 0
-53 697 0
54 -53 -6 0
-54 53 0
-54 6 0
55 -698 -699 0
-55 698 0
-55 699 0
56 -8 -700 0
-56 8 0
-56 700 0
57 -56 -701 0
-57 56 0
-57 701 0
58 -702 -55 0
-58 702 0
-58 55 0
59 -9 -696 0
-59 9 0
-59 696 0
60 -59 -10 0
-60 59 0
-60 10 0
61 -703 -58 0
-61 703 0
-61 58 0
62 -704 -11 0
-62 704 0
-62 11 0
63 -62 -10 0
-63 62 0
-63 10 0
64 -705 -61 0
-64 705 0
-64 61 0
65 -706 -13 0
-65 706 0
-65 13 0
66 -65 -15 0
-66 65 0
-66 15 0
67 -707 -64 0
-67 707 0
-67 64 0
68 -700 -708 0
-68 700 0
-68 708 0
69 -68 -16 0
-69 68 0
-69 16 0
70 -709 -67 0
-70 709 0
-70 67 0
71 -710 -711 0
-71 710 0
-71 711 0
72 -71 -18 0
-72 71 0
-72 18 0
73 -712 -70 0
-73 712 0
-73 70 0
74 -19 -17 0
-74 19 0
-74 17 0
75 -74 -713 0
-75 74 0
-75 713 0
76 -714 -73 0
-76 714 0
-76 73 0
77 -710 -5 0
-77 710 0
-77 5 0
78 -77 -715 0
-78 77 0
-78 715 0
79 -716 -76 0
-79 716 0
-79 76 0
80 -21 -17 0
-80 21 0
-80 17 0
81 -80 -717 0
-81 80 0
-81 717 0
82 -718 -79 0
-82 718 0
-82 79 0
83 -719 -23 0
-83 719 0
-83 23 0
84 -83 -715 0
-84 83 0
-84 715 0
85 -720 -82 0
-85 720 0
-85 82 0
86 -25 -7 0
-86 25 0
-86 7 0
87 -86 -5 0
-87 86 0
-87 5 0
88 -721 -85 0
-88 721 0
-88 85 0
89 -27 -722 0
-89 27 0
-89 722 0
90 -89 -723 0
-90 89 0
-90 723 0
91 -724 -88 0
-91 724 0
-91 88 0
92 -725 -726 0
-92 725 0
-92 726 0
93 -92 -18 0
-93 92 0
-93 18 0
94 -727 -91 0
-94 727 0
-94 91 0
95 -728 -729 0
-95 728 0
-95 729 0
96 -95 -730 0
-96 95 0
-96 730 0
97 -731 -94 0
-97 731 0
-97 94 0
98 -26 -5 0
-98 26 0
-98 5 0
99 -98 -2 0
-99 98 0
-99 2 0
100 -732 -97 0
-100 732 0
-100 97 0
101 -31 -29 0
-101 31 0
-101 29 0
102 -101 -12 0
-102 101 0
-102 12 0
103 -733 -100 0
-103 733 0
-103 100 0
104 -12 -734 0
-104 12 0
-104 734 0
105 -104 -722 0
-105 104 0
-105 722 0
106 -735 -103 0
-106 735 0
-106 103 0
107 -736 -12 0
-107 736 0
-107 12 0
108 -107 -723 0
-108 107 0
-108 723 0
109 -737 -106 0
-109 737 0
-109 106 0
110 -738 -713 0
-110 738 0
-110 713 0
111 -110 -35 0
-111 110 0
-111 35 0
112 -739 -109 0
-112 739 0
-112 109 0
113 -740 -36 0
-113 740 0
-113 36 0
114 -113 -28 0
-114 113 0
-114 28 0
115 -741 -112 0
-115 741 0
-115 112 0
116 -729 -20 0
-116 729 0
-116 20 0
117 -116 -722 0
-117 116 0
-117 722 0
118 -742 -115 0
-118 742 0
-118 115 0
119 -722 -2 0
-119 722 0
-119 2 0
120 -119 -35 0
-120 119 0
-120 35 0
121 -743 -118 0
-121 743 0
-121 118 0
122 -38 -20 0
-122 38 0
-122 20 0
123 -122 -744 0
-123 122 0
-123 744 0
124 -745 -121 0
-124 745 0
-124 121 0
125 -20 -4 0
-125 20 0
-125 4 0
126 -125 -12 0
-126 125 0
-126 12 0
127 -746 -124 0
-127 746 0
-127 124 0
128 -40 -747 0
-128 40 0
-128 747 0
129 -128 -35 0
-129 128 0
-129 35 0
130 -748 -127 0
-130 748 0
-130 127 0
131 -23 -749 0
-131 23 0
-131 749 0
132 -131 -26 0
-132 131 0
-132 26 0
133 -750 -130 0
-133 750 0
-133 130 0
134 -725 -26 0
-134 725 0
-134 26 0
135 -134 -22 0
-135 134 0
-135 22 0
136 -751 -133 0
-136 751 0
-136 133 0
137 -40 -5 0
-137 40 0
-137 5 0
138 -137 -26 0
-138 137 0
-138 26 0
139 -752 -136 0
-139 752 0
-139 136 0
140 -753 -754 0
-140 753 0
-140 754 0
141 -140 -3 0
-141 140 0
-141 3 0
142 -755 -139 0
-142 755 0
-142 139 0
143 -756 -706 0
-143 756 0
-143 706 0
144 -143 -757 0
-144 143 0
-144 757 0
145 -758 -142 0
-145 758 0
-145 142 0
146 -36 -736 0
-146 36 0
-146 736 0
147 -146 -1 0
-147 146 0
-147 1 0
148 -759 -145 0
-148 759 0
-148 145 0
149 -760 -4 0
-149 760 0
-149 4 0
150 -149 -44 0
-150 149 0
-150 44 0
151 -761 -148 0
-151 761 0
-151 148 0
152 -762 -753 0
-152 762 0
-152 753 0
153 -152 -734 0
-153 152 0
-153 734 0
154 -763 -151 0
-154 763 0
-154 151 0
155 -764 -723 0
-155 764 0
-155 723 0
156 -155 -717 0
-156 155 0
-156 717 0
157 -765 -154 0
-157 765 0
-157 154 0
158 -760 -766 0
-158 760 0
-158 766 0
159 -158 -767 0
-159 158 0
-159 767 0
160 -768 -157 0
-160 768 0
-160 157 0
161 -48 -47 0
-161 48 0
-161 47 0
162 -161 -706 0
-162 161 0
-162 706 0
163 -769 -160 0
-163 769 0
-163 160 0
164 -33 -719 0
-164 33 0
-164 719 0
165 -164 -18 0
-165 164 0
-165 18 0
166 -770 -163 0
-166 770 0
-166 163 0
167 -715 -5 0
-167 715 0
-167 5 0
168 -167 -771 0
-168 167 0
-168 771 0
169 -772 -166 0
-169 772 0
-169 166 0
170 -27 -708 0
-170 27 0
-170 708 0
171 -170 -28 0
-171 170 0
-171 28 0
172 -773 -169 0
-172 773 0
-172 169 0
173 -31 -7 0
-173 31 0
-173 7 0
174 -173 -717 0
-174 173 0
-174 717 0
175 -774 -172 0
-175 774 0
-175 172 0
176 -41 -696 0
-176 41 0
-176 696 0
177 -176 -771 0
-177 176 0
-177 771 0
178 -775 -175 0
-178 775 0
-178 175 0
179 -725 -776 0
-179 725 0
-179 776 0
180 -179 -701 0
-180 179 0
-180 701 0
181 -777 -178 0
-181 777 0
-181 178 0
182 -39 -13 0
-182 39 0
-182 13 0
183 -182 -713 0
-183 182 0
-183 713 0
184 -778 -181 0
-184 778 0
-184 181 0
185 -12 -11 0
-185 12 0
-185 11 0
186 -185 -39 0
-186 185 0
-186 39 0
187 -779 -184 0
-187 779 0
-187 184 0
188 -713 -14 0
-188 713 0
-188 14 0
189 -188 -723 0
-189 188 0
-189 723 0
190 -780 -187 0
-190 780 0
-190 187 0
191 -49 -48 0
-191 49 0
-191 48 0
192 -191 -701 0
-192 191 0
-192 701 0
193 -781 -190 0
-193 781 0
-193 190 0
194 -767 -713 0
-194 767 0
-194 713 0
195 -194 -782 0
-195 194 0
-195 782 0
196 -783 -193 0
-196 783 0
-196 193 0
197 -760 -7 0
-197 760 0
-197 7 0
198 -197 -17 0
-198 197 0
-198 17 0
199 -784 -196 0
-199 784 0
-199 196 0
200 -785 -719 0
-200 785 0
-200 719 0
201 -200 -9 0
-201 200 0
-201 9 0
202 -786 -199 0
-202 786 0
-202 199 0
203 -41 -23 0
-203 41 0
-203 23 0
204 -203 -14 0
-204 203 0
-204 14 0
205 -787 -202 0
-205 787 0
-205 202 0
206 -46 -16 0
-206 46 0
-206 16 0
207 -206 -10 0
-207 206 0
-207 10 0
208 -788 -205 0
-208 788 0
-208 205 0
209 -46 -17 0
-209 46 0
-209 17 0
210 -209 -22 0
-210 209 0
-210 22 0
211 -789 -208 0
-211 789 0
-211 208 0
212 -49 -719 0
-212 49 0
-212 719 0
213 -212 -790 0
-213 212 0
-213 790 0
214 -791 -211 0
-214 791 0
-214 211 0
215 -723 -700 0
-215 723 0
-215 700 0
216 -215 -782 0
-216 215 0
-216 782 0
217 -792 -214 0
-217 792 0
-217 214 0
218 -785 -31 0
-218 785 0
-218 31 0
219 -218 -782 0
-219 218 0
-219 782 0
220 -793 -217 0
-220 793 0
-220 217 0
221 -23 -710 0
-221 23 0
-221 710 0
222 -221 -764 0
-222 221 0
-222 764 0
223 -794 -220 0
-223 794 0
-223 220 0
224 -760 -34 0
-224 760 0
-224 34 0
225 -224 -734 0
-225 224 0
-225 734 0
226 -795 -223 0
-226 795 0
-226 223 0
227 -725 -11 0
-227 725 0
-227 11 0
228 -227 -762 0
-228 227 0
-228 762 0
229 -796 -226 0
-229 796 0
-229 226 0
230 -50 -41 0
-230 50 0
-230 41 0
231 -230 -3 0
-231 230 0
-231 3 0
232 -797 -229 0
-232 797 0
-232 229 0
233 -798 -697 0
-233 798 0
-233 697 0
234 -233 -42 0
-234 233 0
-234 42 0
235 -799 -232 0
-235 799 0
-235 232 0
236 -736 -697 0
-236 736 0
-236 697 0
237 -236 -41 0
-237 236 0
-237 41 0
238 -800 -235 0
-238 800 0
-238 235 0
239 -715 -710 0
-239 715 0
-239 710 0
240 -239 -2 0
-240 239 0
-240 2 0
241 -801 -238 0
-241 801 0
-241 238 0
242 -43 -27 0
-242 43 0
-242 27 0
243 -242 -706 0
-243 242 0
-243 706 0
244 -802 -241 0
-244 802 0
-244 241 0
245 -29 -711 0
-245 29 0
-245 711 0
246 -245 -10 0
-246 245 0
-246 10 0
247 -803 -244 0
-247 803 0
-247 244 0
248 -41 -725 0
-248 41 0
-248 725 0
249 -248 -717 0
-249 248 0
-249 717 0
250 -804 -247 0
-250 804 0
-250 247 0
251 -805 -700 0
-251 805 0
-251 700 0
252 -251 -734 0
-252 251 0
-252 734 0
253 -806 -250 0
-253 806 0
-253 250 0
254 -782 -715 0
-254 782 0
-254 715 0
255 -254 -10 0
-255 254 0
-255 10 0
256 -807 -253 0
-256 807 0
-256 253 0
257 -760 -41 0
-257 760 0
-257 41 0
258 -257 -2 0
-258 257 0
-258 2 0
259 -808 -256 0
-259 808 0
-259 256 0
260 -43 -726 0
-260 43 0
-260 726 0
261 -260 -700 0
-261 260 0
-261 700 0
262 -809 -259 0
-262 809 0
-262 259 0
263 -747 -697 0
-263 747 0
-263 697 0
264 -263 -9 0
-264 263 0
-264 9 0
265 -810 -262 0
-265 810 0
-265 262 0
266 -38 -697 0
-266 38 0
-266 697 0
267 -266 -811 0
-267 266 0
-267 811 0
268 -812 -265 0
-268 812 0
-268 265 0
269 -30 -738 0
-269 30 0
-269 738 0
270 -269 -762 0
-270 269 0
-270 762 0
271 -813 -268 0
-271 813 0
-271 268 0
272 -50 -711 0
-272 50 0
-272 711 0
273 -272 -771 0
-273 272 0
-273 771 0
274 -814 -271 0
-274 814 0
-274 271 0
275 -766 -17 0
-275 766 0
-275 17 0
276 -275 -15 0
-276 275 0
-276 15 0
277 -815 -274 0
-277 815 0
-277 274 0
278 -762 -26 0
-278 762 0
-278 26 0
279 -278 -47 0
-279 278 0
-279 47 0
280 -816 -277 0
-280 816 0
-280 277 0
281 -817 -725 0
-281 817 0
-281 725 0
282 -281 -734 0
-282 281 0
-282 734 0
283 -818 -280 0
-283 818 0
-283 280 0
284 -13 -696 0
-284 13 0
-284 696 0
285 -284 -762 0
-285 284 0
-285 762 0
286 -819 -283 0
-286 819 0
-286 283 0
287 -776 -708 0
-287 776 0
-287 708 0
288 -287 -35 0
-288 287 0
-288 35 0
289 -820 -286 0
-289 820 0
-289 286 0
290 -728 -4 0
-290 728 0
-290 4 0
291 -290 -24 0
-291 290 0
-291 24 0
292 -821 -289 0
-292 821 0
-292 289 0
293 -817 -740 0
-293 817 0
-293 740 0
294 -293 -18 0
-294 293 0
-294 18 0
295 -822 -292 0
-295 822 0
-295 292 0
296 -20 -11 0
-296 20 0
-296 11 0
297 -296 -706 0
-297 296 0
-297 706 0
298 -823 -295 0
-298 823 0
-298 295 0
299 -15 -5 0
-299 15 0
-299 5 0
300 -299 -790 0
-300 299 0
-300 790 0
301 -824 -298 0
-301 824 0
-301 298 0
302 -728 -13 0
-302 728 0
-302 13 0
303 -302 -41 0
-303 302 0
-303 41 0
304 -825 -301 0
-304 825 0
-304 301 0
305 -738 -734 0
-305 738 0
-305 734 0
306 -305 -771 0
-306 305 0
-306 771 0
307 -826 -304 0
-307 826 0
-307 304 0
308 -31 -22 0
-308 31 0
-308 22 0
309 -308 -827 0
-309 308 0
-309 827 0
310 -828 -307 0
-310 828 0
-310 307 0
311 -766 -4 0
-311 766 0
-311 4 0
312 -311 -722 0
-312 311 0
-312 722 0
313 -829 -310 0
-313 829 0
-313 310 0
314 -722 -19 0
-314 722 0
-314 19 0
315 -314 -48 0
-315 314 0
-315 48 0
316 -830 -313 0
-316 830 0
-316 313 0
317 -24 -13 0
-317 24 0
-317 13 0
318 -317 -2 0
-318 317 0
-318 2 0
319 -831 -316 0
-319 831 0
-319 316 0
320 -50 -38 0
-320 50 0
-320 38 0
321 -320 -832 0
-321 320 0
-321 832 0
322 -833 -319 0
-322 833 0
-322 319 0
323 -715 -7 0
-323 715 0
-323 7 0
324 -323 -2 0
-324 323 0
-324 2 0
325 -834 -322 0
-325 834 0
-325 322 0
326 -36 -4 0
-326 36 0
-326 4 0
327 -326 -835 0
-327 326 0
-327 835 0
328 -836 -325 0
-328 836 0
-328 325 0
329 -40 -37 0
-329 40 0
-329 37 0
330 -329 -28 0
-330 329 0
-330 28 0
331 -837 -328 0
-331 837 0
-331 328 0
332 -39 -710 0
-332 39 0
-332 710 0
333 -332 -9 0
-333 332 0
-333 9 0
334 -838 -331 0
-334 838 0
-334 331 0
335 -744 -24 0
-335 744 0
-335 24 0
336 -335 -35 0
-336 335 0
-336 35 0
337 -839 -334 0
-337 839 0
-337 334 0
338 -798 -756 0
-338 798 0
-338 756 0
339 -338 -46 0
-339 338 0
-339 46 0
340 -840 -337 0
-340 840 0
-340 337 0
341 -738 -13 0
-341 738 0
-341 13 0
342 -341 -24 0
-342 341 0
-342 24 0
343 -841 -340 0
-343 841 0
-343 340 0
344 -785 -722 0
-344 785 0
-344 722 0
345 -344 -18 0
-345 344 0
-345 18 0
346 -842 -343 0
-346 842 0
-346 343 0
347 -762 -43 0
-347 762 0
-347 43 0
348 -347 -50 0
-348 347 0
-348 50 0
349 -843 -346 0
-349 843 0
-349 346 0
350 -33 -697 0
-350 33 0
-350 697 0
351 -350 -722 0
-351 350 0
-351 722 0
352 -844 -349 0
-352 844 0
-352 349 0
353 -31 -20 0
-353 31 0
-353 20 0
354 -353 -18 0
-354 353 0
-354 18 0
355 -845 -352 0
-355 845 0
-355 352 0
356 -767 -719 0
-356 767 0
-356 719 0
357 -356 -6 0
-357 356 0
-357 6 0
358 -846 -355 0
-358 846 0
-358 355 0
359 -754 -725 0
-359 754 0
-359 725 0
360 -359 -28 0
-360 359 0
-360 28 0
361 -847 -358 0
-361 847 0
-361 358 0
362 -45 -44 0
-362 45 0
-362 44 0
363 -362 -835 0
-363 362 0
-363 835 0
364 -848 -361 0
-364 848 0
-364 361 0
365 -7 -4 0
-365 7 0
-365 4 0
366 -365 -17 0
-366 365 0
-366 17 0
367 -849 -364 0
-367 849 0
-367 364 0
368 -767 -29 0
-368 767 0
-368 29 0
369 -368 -811 0
-369 368 0
-369 811 0
370 -850 -367 0
-370 850 0
-370 367 0
371 -764 -20 0
-371 764 0
-371 20 0
372 -371 -785 0
-372 371 0
-372 785 0
373 -851 -370 0
-373 851 0
-373 370 0
374 -42 -715 0
-374 42 0
-374 715 0
375 -374 -790 0
-375 374 0
-375 790 0
376 -852 -373 0
-376 852 0
-376 373 0
377 -715 -738 0
-377 715 0
-377 738 0
378 -377 -790 0
-378 377 0
-378 790 0
379 -853 -376 0
-379 853 0
-379 376 0
380 -722 -854 0
-380 722 0
-380 854 0
381 -380 -48 0
-381 380 0
-381 48 0
382 -855 -379 0
-382 855 0
-382 379 0
383 -811 -12 0
-383 811 0
-383 12 0
384 -383 -757 0
-384 383 0
-384 757 0
385 -856 -382 0
-385 856 0
-385 382 0
386 -832 -7 0
-386 832 0
-386 7 0
387 -386 -35 0
-387 386 0
-387 35 0
388 -857 -385 0
-388 857 0
-388 385 0
389 -764 -719 0
-389 764 0
-389 719 0
390 -389 -711 0
-390 389 0
-390 711 0
391 -858 -388 0
-391 858 0
-391 388 0
392 -782 -760 0
-392 782 0
-392 760 0
393 -392 -827 0
-393 392 0
-393 827 0
394 -859 -391 0
-394 859 0
-394 391 0
395 -736 -24 0
-395 736 0
-395 24 0
396 -395 -730 0
-396 395 0
-396 730 0
397 -860 -394 0
-397 860 0
-397 394 0
398 -21 -749 0
-398 21 0
-398 749 0
399 -398 -8 0
-399 398 0
-399 8 0
400 -861 -397 0
-400 861 0
-400 397 0
401 -753 -700 0
-401 753 0
-401 700 0
402 -401 -776 0
-402 401 0
-402 776 0
403 -862 -400 0
-403 862 0
-403 400 0
404 -38 -5 0
-404 38 0
-404 5 0
405 -404 -50 0
-405 404 0
-405 50 0
406 -863 -403 0
-406 863 0
-406 403 0
407 -47 -740 0
-407 47 0
-407 740 0
408 -407 -49 0
-408 407 0
-408 49 0
409 -864 -406 0
-409 864 0
-409 406 0
410 -404 -34 0
-410 404 0
-410 34 0
411 -865 -409 0
-411 865 0
-411 409 0
412 -34 -723 0
-412 34 0
-412 723 0
413 -412 -3 0
-413 412 0
-413 3 0
414 -866 -411 0
-414 866 0
-414 411 0
415 -725 -722 0
-415 725 0
-415 722 0
416 -415 -3 0
-416 415 0
-416 3 0
417 -867 -414 0
-417 867 0
-417 414 0
418 -771 -762 0
-418 771 0
-418 762 0
419 -418 -776 0
-419 418 0
-419 776 0
420 -868 -417 0
-420 868 0
-420 417 0
421 -706 -4 0
-421 706 0
-421 4 0
422 -421 -3 0
-422 421 0
-422 3 0
423 -869 -420 0
-423 869 0
-423 420 0
424 -32 -30 0
-424 32 0
-424 30 0
425 -424 -34 0
-425 424 0
-425 34 0
426 -870 -423 0
-426 870 0
-426 423 0
427 -726 -12 0
-427 726 0
-427 12 0
428 -427 -39 0
-428 427 0
-428 39 0
429 -871 -426 0
-429 871 0
-429 426 0
430 -19 -749 0
-430 19 0
-430 749 0
431 -430 -12 0
-431 430 0
-431 12 0
432 -872 -429 0
-432 872 0
-432 429 0
433 -37 -18 0
-433 37 0
-433 18 0
434 -433 -10 0
-434 433 0
-434 10 0
435 -873 -432 0
-435 873 0
-435 432 0
436 -50 -23 0
-436 50 0
-436 23 0
437 -436 -10 0
-437 436 0
-437 10 0
438 -874 -435 0
-438 874 0
-438 435 0
439 -767 -18 0
-439 767 0
-439 18 0
440 -439 -6 0
-440 439 0
-440 6 0
441 -875 -438 0
-441 875 0
-441 438 0
442 -49 -708 0
-442 49 0
-442 708 0
443 -442 -28 0
-443 442 0
-443 28 0
444 -876 -441 0
-444 876 0
-444 441 0
445 -29 -854 0
-445 29 0
-445 854 0
446 -445 -10 0
-446 445 0
-446 10 0
447 -877 -444 0
-447 877 0
-447 444 0
448 -811 -696 0
-448 811 0
-448 696 0
449 -448 -9 0
-449 448 0
-449 9 0
450 -878 -447 0
-450 878 0
-450 447 0
451 -764 -8 0
-451 764 0
-451 8 0
452 -451 -26 0
-452 451 0
-452 26 0
453 -879 -450 0
-453 879 0
-453 450 0
454 -798 -700 0
-454 798 0
-454 700 0
455 -454 -757 0
-455 454 0
-455 757 0
456 -880 -453 0
-456 880 0
-456 453 0
457 -14 -835 0
-457 14 0
-457 835 0
458 -457 -827 0
-458 457 0
-458 827 0
459 -881 -456 0
-459 881 0
-459 456 0
460 -17 -734 0
-460 17 0
-460 734 0
461 -460 -708 0
-461 460 0
-461 708 0
462 -882 -459 0
-462 882 0
-462 459 0
463 -25 -5 0
-463 25 0
-463 5 0
464 -463 -49 0
-464 463 0
-464 49 0
465 -883 -462 0
-465 883 0
-465 462 0
466 -38 -34 0
-466 38 0
-466 34 0
467 -466 -734 0
-467 466 0
-467 734 0
468 -884 -465 0
-468 884 0
-468 465 0
469 -738 -7 0
-469 738 0
-469 7 0
470 -469 -790 0
-470 469 0
-470 790 0
471 -885 -468 0
-471 885 0
-471 468 0
472 -30 -21 0
-472 30 0
-472 21 0
473 -472 -50 0
-473 472 0
-473 50 0
474 -886 -471 0
-474 886 0
-474 471 0
475 -43 -40 0
-475 43 0
-475 40 0
476 -475 -747 0
-476 475 0
-476 747 0
477 -887 -474 0
-477 887 0
-477 474 0
478 -29 -14 0
-478 29 0
-478 14 0
479 -478 -49 0
-479 478 0
-479 49 0
480 -888 -477 0
-480 888 0
-480 477 0
481 -805 -710 0
-481 805 0
-481 710 0
482 -481 -715 0
-482 481 0
-482 715 0
483 -889 -480 0
-483 889 0
-483 480 0
484 -17 -700 0
-484 17 0
-484 700 0
485 -484 -827 0
-485 484 0
-485 827 0
486 -890 -483 0
-486 890 0
-486 483 0
487 -749 -696 0
-487 749 0
-487 696 0
488 -487 -754 0
-488 487 0
-488 754 0
489 -891 -486 0
-489 891 0
-489 486 0
490 -7 -697 0
-490 7 0
-490 697 0
491 -490 -790 0
-491 490 0
-491 790 0
492 -892 -489 0
-492 892 0
-492 489 0
493 -40 -726 0
-493 40 0
-493 726 0
494 -493 -39 0
-494 493 0
-494 39 0
495 -893 -492 0
-495 893 0
-495 492 0
496 -719 -700 0
-496 719 0
-496 700 0
497 -496 -696 0
-497 496 0
-497 696 0
498 -894 -495 0
-498 894 0
-498 495 0
499 -11 -5 0
-499 11 0
-499 5 0
500 -499 -37 0
-500 499 0
-500 37 0
501 -895 -498 0
-501 895 0
-501 498 0
502 -46 -36 0
-502 46 0
-502 36 0
503 -502 -782 0
-503 502 0
-503 782 0
504 -896 -501 0
-504 896 0
-504 501 0
505 -24 -701 0
-505 24 0
-505 701 0
506 -505 -835 0
-506 505 0
-506 835 0
507 -897 -504 0
-507 897 0
-507 504 0
508 -740 -898 0
-508 740 0
-508 898 0
509 -508 -811 0
-509 508 0
-509 811 0
510 -899 -507 0
-510 899 0
-510 507 0
511 -50 -34 0
-511 50 0
-511 34 0
512 -511 -8 0
-512 511 0
-512 8 0
513 -900 -510 0
-513 900 0
-513 510 0
514 -31 -13 0
-514 31 0
-514 13 0
515 -514 -730 0
-515 514 0
-515 730 0
516 -901 -513 0
-516 901 0
-516 513 0
517 -805 -798 0
-517 805 0
-517 798 0
518 -517 -48 0
-518 517 0
-518 48 0
519 -902 -516 0
-519 902 0
-519 516 0
520 -756 -738 0
-520 756 0
-520 738 0
521 -520 -754 0
-521 520 0
-521 754 0
522 -903 -519 0
-522 903 0
-522 519 0
523 -290 -1 0
-523 290 0
-523 1 0
524 -904 -522 0
-524 904 0
-524 522 0
525 -30 -23 0
-525 30 0
-525 23 0
526 -525 -3 0
-526 525 0
-526 3 0
527 -905 -524 0
-527 905 0
-527 524 0
528 -40 -29 0
-528 40 0
-528 29 0
529 -528 -41 0
-529 528 0
-529 41 0
530 -906 -527 0
-530 906 0
-530 527 0
531 -700 -696 0
-531 700 0
-531 696 0
532 -531 -39 0
-532 531 0
-532 39 0
533 -907 -530 0
-533 907 0
-533 530 0
534 -34 -708 0
-534 34 0
-534 708 0
535 -534 -827 0
-535 534 0
-535 827 0
536 -908 -533 0
-536 908 0
-536 533 0
537 -43 -730 0
-537 43 0
-537 730 0
538 -537 -20 0
-538 537 0
-538 20 0
539 -909 -536 0
-539 909 0
-539 536 0
540 -805 -29 0
-540 805 0
-540 29 0
541 -540 -719 0
-541 540 0
-541 719 0
542 -910 -539 0
-542 910 0
-542 539 0
543 -726 -766 0
-543 726 0
-543 766 0
544 -543 -31 0
-544 543 0
-544 31 0
545 -911 -542 0
-545 911 0
-545 542 0
546 -45 -729 0
-546 45 0
-546 729 0
547 -546 -711 0
-547 546 0
-547 711 0
548 -912 -545 0
-548 912 0
-548 545 0
549 -302 -811 0
-549 302 0
-549 811 0
550 -913 -548 0
-550 913 0
-550 548 0
551 -15 -898 0
-551 15 0
-551 898 0
552 -551 -9 0
-552 551 0
-552 9 0
553 -914 -550 0
-553 914 0
-553 550 0
554 -776 -711 0
-554 776 0
-554 711 0
555 -554 -9 0
-555 554 0
-555 9 0
556 -915 -553 0
-556 915 0
-556 553 0
557 -729 -725 0
-557 729 0
-557 725 0
558 -557 -790 0
-558 557 0
-558 790 0
559 -916 -556 0
-559 916 0
-559 556 0
560 -50 -715 0
-560 50 0
-560 715 0
561 -560 -717 0
-561 560 0
-561 717 0
562 -917 -559 0
-562 917 0
-562 559 0
563 -8 -7 0
-563 8 0
-563 7 0
564 -563 -27 0
-564 563 0
-564 27 0
565 -918 -562 0
-565 918 0
-565 562 0
566 -45 -1 0
-566 45 0
-566 1 0
567 -566 -37 0
-567 566 0
-567 37 0
568 -919 -565 0
-568 919 0
-568 565 0
569 -236 -14 0
-569 236 0
-569 14 0
570 -920 -568 0
-570 920 0
-570 568 0
571 -767 -854 0
-571 767 0
-571 854 0
572 -571 -12 0
-572 571 0
-572 12 0
573 -921 -570 0
-573 921 0
-573 570 0
574 -11 -1 0
-574 11 0
-574 1 0
575 -574 -35 0
-575 574 0
-575 35 0
576 -922 -573 0
-576 922 0
-576 573 0
577 -753 -710 0
-577 753 0
-577 710 0
578 -577 -713 0
-578 577 0
-578 713 0
579 -923 -576 0
-579 923 0
-579 576 0
580 -817 -2 0
-580 817 0
-580 2 0
581 -580 -717 0
-581 580 0
-581 717 0
582 -924 -579 0
-582 924 0
-582 579 0
583 -24 -711 0
-583 24 0
-583 711 0
584 -583 -723 0
-584 583 0
-584 723 0
585 -925 -582 0
-585 925 0
-585 582 0
586 -36 -710 0
-586 36 0
-586 710 0
587 -586 -715 0
-587 586 0
-587 715 0
588 -926 -585 0
-588 926 0
-588 585 0
589 -747 -749 0
-589 747 0
-589 749 0
590 -589 -835 0
-590 589 0
-590 835 0
591 -927 -588 0
-591 927 0
-591 588 0
592 -44 -696 0
-592 44 0
-592 696 0
593 -592 -790 0
-593 592 0
-593 790 0
594 -928 -591 0
-594 928 0
-594 591 0
595 -31 -790 0
-595 31 0
-595 790 0
596 -595 -6 0
-596 595 0
-596 6 0
597 -929 -594 0
-597 929 0
-597 594 0
598 -762 -11 0
-598 762 0
-598 11 0
599 -598 -1 0
-599 598 0
-599 1 0
600 -930 -597 0
-600 930 0
-600 597 0
601 -726 -719 0
-601 726 0
-601 719 0
602 -601 -736 0
-602 601 0
-602 736 0
603 -931 -600 0
-603 931 0
-603 600 0
604 -45 -30 0
-604 45 0
-604 30 0
605 -604 -37 0
-605 604 0
-605 37 0
606 -932 -603 0
-606 932 0
-606 603 0
607 -738 -710 0
-607 738 0
-607 710 0
608 -607 -811 0
-608 607 0
-608 811 0
609 -933 -606 0
-609 933 0
-609 606 0
610 -46 -736 0
-610 46 0
-610 736 0
611 -610 -33 0
-611 610 0
-611 33 0
612 -934 -609 0
-612 934 0
-612 609 0
613 -25 -854 0
-613 25 0
-613 854 0
614 -613 -736 0
-614 613 0
-614 736 0
615 -935 -612 0
-615 935 0
-615 612 0
616 -36 -34 0
-616 36 0
-616 34 0
617 -616 -50 0
-617 616 0
-617 50 0
618 -936 -615 0
-618 936 0
-618 615 0
619 -35 -696 0
-619 35 0
-619 696 0
620 -619 -3 0
-620 619 0
-620 3 0
621 -937 -618 0
-621 937 0
-621 618 0
622 -728 -766 0
-622 728 0
-622 766 0
623 -622 -717 0
-623 622 0
-623 717 0
624 -938 -621 0
-624 938 0
-624 621 0
625 -39 -31 0
-625 39 0
-625 31 0
626 -625 -9 0
-626 625 0
-626 9 0
627 -939 -624 0
-627 939 0
-627 624 0
628 -33 -13 0
-628 33 0
-628 13 0
629 -628 -706 0
-629 628 0
-629 706 0
630 -940 -627 0
-630 940 0
-630 627 0
631 -754 -704 0
-631 754 0
-631 704 0
632 -631 -18 0
-632 631 0
-632 18 0
633 -941 -630 0
-633 941 0
-633 630 0
634 -730 -14 0
-634 730 0
-634 14 0
635 -634 -827 0
-635 634 0
-635 827 0
636 -942 -633 0
-636 942 0
-636 633 0
637 -736 -11 0
-637 736 0
-637 11 0
638 -637 -701 0
-638 637 0
-638 701 0
639 -943 -636 0
-639 943 0
-639 636 0
640 -239 -28 0
-640 239 0
-640 28 0
641 -944 -639 0
-641 944 0
-641 639 0
642 -701 -696 0
-642 701 0
-642 696 0
643 -642 -22 0
-643 642 0
-643 22 0
644 -945 -641 0
-644 945 0
-644 641 0
645 -40 -32 0
-645 40 0
-645 32 0
646 -645 -757 0
-646 645 0
-646 757 0
647 -946 -644 0
-647 946 0
-647 644 0
648 -546 -41 0
-648 546 0
-648 41 0
649 -947 -647 0
-649 947 0
-649 647 0
650 -753 -728 0
-650 753 0
-650 728 0
651 -650 -827 0
-651 650 0
-651 827 0
652 -948 -649 0
-652 948 0
-652 649 0
653 -29 -24 0
-653 29 0
-653 24 0
654 -653 -736 0
-654 653 0
-654 736 0
655 -949 -652 0
-655 949 0
-655 652 0
656 -798 -36 0
-656 798 0
-656 36 0
657 -656 -706 0
-657 656 0
-657 706 0
658 -950 -655 0
-658 950 0
-658 655 0
659 -13 -7 0
-659 13 0
-659 7 0
660 -659 -20 0
-660 659 0
-660 20 0
661 -951 -658 0
-661 951 0
-661 658 0
662 -854 -7 0
-662 854 0
-662 7 0
663 -662 -11 0
-663 662 0
-663 11 0
664 -952 -661 0
-664 952 0
-664 661 0
665 -706 -7 0
-665 706 0
-665 7 0
666 -665 -757 0
-666 665 0
-666 757 0
667 -953 -664 0
-667 953 0
-667 664 0
668 -176 -18 0
-668 176 0
-668 18 0
669 -954 -667 0
-669 954 0
-669 667 0
670 -622 -832 0
-670 622 0
-670 832 0
671 -955 -669 0
-671 955 0
-671 669 0
672 -730 -696 0
-672 730 0
-672 696 0
673 -672 -776 0
-673 672 0
-673 776 0
674 -956 -671 0
-674 956 0
-674 671 0
675 -38 -24 0
-675 38 0
-675 24 0
676 -675 -722 0
-676 675 0
-676 722 0
677 -957 -674 0
-677 957 0
-677 674 0
678 -734 -697 0
-678 734 0
-678 697 0
679 -678 -44 0
-679 678 0
-679 44 0
680 -958 -677 0
-680 958 0
-680 677 0
681 -754 -33 0
-681 754 0
-681 33 0
682 -681 -20 0
-682 681 0
-682 20 0
683 -959 -680 0
-683 959 0
-683 680 0
684 -832 -760 0
-684 832 0
-684 760 0
685 -684 -717 0
-685 684 0
-685 717 0
686 -960 -683 0
-686 960 0
-686 683 0
687 -726 -25 0
-687 726 0
-687 25 0
688 -687 -46 0
-688 687 0
-688 46 0
689 -961 -686 0
-689 961 0
-689 686 0
690 -31 -713 0
-690 31 0
-690 713 0
691 -690 -44 0
-691 690 0
-691 44 0
692 -962 -689 0
-692 962 0
-692 689 0
693 -817 -854 0
-693 817 0
-693 854 0
694 -693 -827 0
-694 693 0
-694 827 0
695 -963 -692 0
-695 963 0
-695 692 0
-696 -5 0
696 5 0
-697 -4 0
697 4 0
-698 -54 0
698 54 0
-699 -52 0
699 52 0
-700 -7 0
700 7 0
-701 -9 0
701 9 0
-702 -57 0
702 57 0
-703 -60 0
703 60 0
-704 -12 0
704 12 0
-705 -63 0
705 63 0
-706 -14 0
706 14 0
-707 -66 0
707 66 0
-708 -2 0
708 2 0
-709 -69 0
709 69 0
-710 -17 0
710 17 0
-711 -1 0
711 1 0
-712 -72 0
712 72 0
-713 -18 0
713 18 0
-714 -75 0
714 75 0
-715 -20 0
715 20 0
-716 -78 0
716 78 0
-717 -22 0
717 22 0
-718 -81 0
718 81 0
-719 -24 0
719 24 0
-720 -84 0
720 84 0
-721 -87 0
721 87 0
-722 -26 0
722 26 0
-723 -28 0
723 28 0
-724 -90 0
724 90 0
-725 -30 0
725 30 0
-726 -29 0
726 29 0
-727 -93 0
727 93 0
-728 -32 0
728 32 0
-729 -31 0
729 31 0
-730 -33 0
730 33 0
-731 -96 0
731 96 0
-732 -99 0
732 99 0
-733 -102 0
733 102 0
-734 -8 0
734 8 0
-735 -105 0
735 105 0
-736 -34 0
736 34 0
-737 -108 0
737 108 0
-738 -19 0
738 19 0
-739 -111 0
739 111 0
-740 -37 0
740 37 0
-741 -114 0
741 114 0
-742 -117 0
742 117 0
-743 -120 0
743 120 0
-744 -39 0
744 39 0
-745 -123 0
745 123 0
-746 -126 0
746 126 0
-747 -27 0
747 27 0
-748 -129 0
748 129 0
-749 -11 0
749 11 0
-750 -132 0
750 132 0
-751 -135 0
751 135 0
-752 -138 0
752 138 0
-753 -42 0
753 42 0
-754 -41 0
754 41 0
-755 -141 0
755 141 0
-756 -25 0
756 25 0
-757 -35 0
757 35 0
-758 -144 0
758 144 0
-759 -147 0
759 147 0
-760 -43 0
760 43 0
-761 -150 0
761 150 0
-762 -45 0
762 45 0
-763 -153 0
763 153 0
-764 -46 0
764 46 0
-765 -156 0
765 156 0
-766 -21 0
766 21 0
-767 -36 0
767 36 0
-768 -159 0
768 159 0
-769 -162 0
769 162 0
-770 -165 0
770 165 0
-771 -48 0
771 48 0
-772 -168 0
772 168 0
-773 -171 0
773 171 0
-774 -174 0
774 174 0
-775 -177 0
775 177 0
-776 -15 0
776 15 0
-777 -180 0
777 180 0
-778 -183 0
778 183 0
-779 -186 0
779 186 0
-780 -189 0
780 189 0
-781 -192 0
781 192 0
-782 -44 0
782 44 0
-783 -195 0
783 195 0
-784 -198 0
784 198 0
-785 -47 0
785 47 0
-786 -201 0
786 201 0
-787 -204 0
787 204 0
-788 -207 0
788 207 0
-789 -210 0
789 210 0
-790 -10 0
790 10 0
-791 -213 0
791 213 0
-792 -216 0
792 216 0
-793 -219 0
793 219 0
-794 -222 0
794 222 0
-795 -225 0
795 225 0
-796 -228 0
796 228 0
-797 -231 0
797 231 0
-798 -38 0
798 38 0
-799 -234 0
799 234 0
-800 -237 0
800 237 0
-801 -240 0
801 240 0
-802 -243 0
802 243 0
-803 -246 0
803 246 0
-804 -249 0
804 249 0
-805 -40 0
805 40 0
-806 -252 0
806 252 0
-807 -255 0
807 255 0
-808 -258 0
808 258 0
-809 -261 0
809 261 0
-810 -264 0
810 264 0
-811 -16 0
811 16 0
-812 -267 0
812 267 0
-813 -270 0
813 270 0
-814 -273 0
814 273 0
-815 -276 0
815 276 0
-816 -279 0
816 279 0
-817 -50 0
817 50 0
-818 -282 0
818 282 0
-819 -285 0
819 285 0
-820 -288 0
820 288 0
-821 -291 0
821 291 0
-822 -294 0
822 294 0
-823 -297 0
823 297 0
-824 -300 0
824 300 0
-825 -303 0
825 303 0
-826 -306 0
826 306 0
-827 -6 0
827 6 0
-828 -309 0
828 309 0
-829 -312 0
829 312 0
-830 -315 0
830 315 0
-831 -318 0
831 318 0
-832 -49 0
832 49 0
-833 -321 0
833 321 0
-834 -324 0
834 324 0
-835 -3 0
835 3 0
-836 -327 0
836 327 0
-837 -330 0
837 330 0
-838 -333 0
838 333 0
-839 -336 0
839 336 0
-840 -339 0
840 339 0
-841 -342 0
841 342 0
-842 -345 0
842 345 0
-843 -348 0
843 348 0
-844 -351 0
844 351 0
-845 -354 0
845 354 0
-846 -357 0
846 357 0
-847 -360 0
847 360 0
-848 -363 0
848 363 0
-849 -366 0
849 366 0
-850 -369 0
850 369 0
-851 -372 0
851 372 0
-852 -375 0
852 375 0
-853 -378 0
853 378 0
-854 -23 0
854 23 0
-855 -381 0
855 381 0
-856 -384 0
856 384 0
-857 -387 0
857 387 0
-858 -390 0
858 390 0
-859 -393 0
859 393 0
-860 -396 0
860 396 0
-861 -399 0
861 399 0
-862 -402 0
862 402 0
-863 -405 0
863 405 0
-864 -408 0
864 408 0
-865 -410 0
865 410 0
-866 -413 0
866 413 0
-867 -416 0
867 416 0
-868 -419 0
868 419 0
-869 -422 0
869 422 0
-870 -425 0
870 425 0
-871 -428 0
871 428 0
-872 -431 0
872 431 0
-873 -434 0
873 434 0
-874 -437 0
874 437 0
-875 -440 0
875 440 0
-876 -443 0
876 443 0
-877 -446 0
877 446 0
-878 -449 0
878 449 0
-879 -452 0
879 452 0
-880 -455 0
880 455 0
-881 -458 0
881 458 0
-882 -461 0
882 461 0
-883 -464 0
883 464 0
-884 -467 0
884 467 0
-885 -470 0
885 470 0
-886 -473 0
886 473 0
-887 -476 0
887 476 0
-888 -479 0
888 479 0
-889 -482 0
889 482 0
-890 -485 0
890 485 0
-891 -488 0
891 488 0
-892 -491 0
892 491 0
-893 -494 0
893 494 0
-894 -497 0
894 497 0
-895 -500 0
895 500 0
-896 -503 0
896 503 0
-897 -506 0
897 506 0
-898 -13 0
898 13 0
-899 -509 0
899 509 0
-900 -512 0
900 512 0
-901 -515 0
901 515 0
-902 -518 0
902 518 0
-903 -521 0
903 521 0
-904 -523 0
904 523 0
-905 -526 0
905 526 0
-906 -529 0
906 529 0
-907 -532 0
907 532 0
-908 -535 0
908 535 0
-909 -538 0
909 538 0
-910 -541 0
910 541 0
-911 -544 0
911 544 0
-912 -547 0
912 547 0
-913 -549 0
913 549 0
-914 -552 0
914 552 0
-915 -555 0
915 555 0
-916 -558 0
916 558 0
-917 -561 0
917 561 0
-918 -564 0
918 564 0
-919 -567 0
919 567 0
-920 -569 0
920 569 0
-921 -572 0
921 572 0
-922 -575 0
922 575 0
-923 -578 0
923 578 0
-924 -581 0
924 581 0
-925 -584 0
925 584 0
-926 -587 0
926 587 0
-927 -590 0
927 590 0
-928 -593 0
928 593 0
-929 -596 0
929 596 0
-930 -599 0
930 599 0
-931 -602 0
931 602 0
-932 -605 0
932 605 0
-933 -608 0
933 608 0
-934 -611 0
934 611 0
-935 -614 0
935 614 0
-936 -617 0
936 617 0
-937 -620 0
937 620 0
-938 -623 0
938 623 0
-939 -626 0
939 626 0
-940 -629 0
940 629 0
-941 -632 0
941 632 0
-942 -635 0
942 635 0
-943 -638 0
943 638 0
-944 -640 0
944 640 0
-945 -643 0
945 643 0
-946 -646 0
946 646 0
-947 -648 0
947 648 0
-948 -651 0
948 651 0
-949 -654 0
949 654 0
-950 -657 0
950 657 0
-951 -660 0
951 660 0
-952 -663 0
952 663 0
-953 -666 0
953 666 0
-954 -668 0
954 668 0
-955 -670 0
955 670 0
-956 -673 0
956 673 0
-957 -676 0
957 676 0
-958 -679 0
958 679 0
-959 -682 0
959 682 0
-960 -685 0
960 685 0
-961 -688 0
961 688 0
-962 -691 0
962 691 0
-963 -694 0
963 694 0
695 0
